NAME : toy2.vrp
COMMENT : Example of a CVRP instance with explicit distances
TYPE : CVRP
DIMENSION : 4
EDGE_WEIGHT_TYPE : EXPLICIT
EDGE_WEIGHT_FORMAT : LOWER_ROW
NODE_COORD_TYPE : TWOD_COORDS
CAPACITY : 2
EDGE_WEIGHT_SECTION
23
29 9
17 35 15
NODE_COORD_SECTION
1 0 0
2 0 20
3 14 18
4 17 0
DEMAND_SECTION
1 0
2 1
3 1
4 1
DEPOT_SECTION
1
-1
EOF
